# Objective value = 1.9647296398465237e+03
x[0] -2.7755575615628914e-17
x[1] 0
x[2] 9.9999999999999978e-01
x[3] 9.9999999999999978e-01
x[4] 9.9999999999999978e-01
x[5] 9.9999999999999978e-01
x[6] 1
x[7] 1
x[8] 9.9999999999999978e-01
x[9] 9.9999999999999978e-01
x[10] 1
x[11] 0
x[12] 0
x[13] 0
x[14] 0
x[15] 0
x[16] 1
x[17] 0
x[18] 9.9999999999999978e-01
x[19] 9.9999999999999778e-01
x[20] 1
x[21] 9.9999999999999978e-01
x[22] 9.9999999999999978e-01
x[23] 9.9999999999999978e-01
x[24] 9.9999999999999778e-01
x[25] 1
x[26] 1
x[27] 9.9999999999999978e-01
x[28] 1
x[29] 1
x[30] 0
x[31] 0
x[32] 1
x[33] 1
x[34] 0
x[35] 9.9999999999999933e-01
x[36] 0
x[37] 1
x[38] 1
x[39] 1
x[40] 0
x[41] 1
x[42] 0
x[43] 0
x[44] 0
x[45] 0
x[46] 1
x[47] 4.6132154268621130e-15
x[48] 0
x[49] 1
x[50] 1
x[51] 9.9999999999999978e-01
x[52] 1
x[53] 1
x[54] 0
x[55] 9.9999999999999989e-01
x[56] 0
x[57] 1
x[58] 9.9999999999999978e-01
x[59] 9.9999999999999778e-01
x[60] 1
x[61] 0
x[62] 0
x[63] 0
x[64] 0
x[65] 0
x[66] 1
x[67] 0
x[68] 0
x[69] 1
x[70] 1
x[71] 0
x[72] 1
x[73] 1
x[74] 1
x[75] 0
x[76] 0
x[77] 1
x[78] 0
x[79] 0
x[80] 9.9999999999999978e-01
x[81] 1
x[82] 0
x[83] 1
x[84] 0
x[85] 0
x[86] 0
x[87] -2.7755575615628914e-17
x[88] 0
x[89] 9.9999999999999978e-01
x[90] 1
x[91] 1
x[92] 1
x[93] 0
x[94] 9.9999999999999978e-01
x[95] 1
x[96] 0
x[97] 1
x[98] 0
x[99] 1
x[100] 0
x[101] 0
x[102] 9.9999999999999989e-01
x[103] 0
x[104] 1
x[105] 0
x[106] 9.9999999999999978e-01
x[107] 9.9999999999999978e-01
x[108] 1
x[109] 1
x[110] 1
x[111] 1
x[112] -2.7755575615628914e-17
x[113] 1
x[114] 9.9999999999999978e-01
x[115] 0
x[116] 1
x[117] 1
x[118] 1
x[119] 0
x[120] 1
x[121] 0
x[122] 1
x[123] 1
x[124] 9.9999999999999978e-01
x[125] 0
x[126] 1
x[127] 1
x[128] 1
x[129] 9.9999999999999978e-01
x[130] 1
x[131] 1
x[132] 1
x[133] 9.9999999999999978e-01
x[134] 0
x[135] 0
x[136] 0
x[137] 0
x[138] 0
x[139] 0
x[140] 1
x[141] 1
x[142] 9.9999999999999778e-01
x[143] 1.0000000000000004e+00
x[144] 1
x[145] 1
x[146] 0
x[147] 0
x[148] -2.7755575615628914e-17
x[149] 1
x[150] 1
x[151] 1
x[152] 9.9999999999999978e-01
x[153] 1
x[154] 9.9999999999999978e-01
x[155] 1
x[156] 0
x[157] 1
x[158] 0
x[159] 0
x[160] 1
x[161] 0
x[162] 0
x[163] 0
x[164] 0
x[165] 1
x[166] 1
x[167] -2.7755575615628914e-17
x[168] 0
x[169] 1
x[170] 0
x[171] 0
x[172] 0
x[173] 0
x[174] 9.9999999999999978e-01
x[175] 1
x[176] 9.9999999999999978e-01
x[177] 0
x[178] 0
x[179] 0
x[180] 1
x[181] -2.0816681711721685e-17
x[182] 0
x[183] 0
x[184] 9.9999999999999756e-01
x[185] 9.9999999999999811e-01
x[186] 0
x[187] 0
x[188] 1
x[189] 0
x[190] 0
x[191] 9.9999999999999978e-01
x[192] 9.9999999999999978e-01
x[193] 9.9999999999999978e-01
x[194] 0
x[195] 0
x[196] 9.9999999999999989e-01
x[197] 0
x[198] 0
x[199] 0
x[200] 9.9999999999999978e-01
x[201] 1
x[202] 9.9999999999999978e-01
x[203] 9.9999999999999933e-01
x[204] 1
x[205] 0
x[206] 9.9999999999999978e-01
x[207] 1
x[208] 1
x[209] 0
x[210] 0
x[211] -1.7347234759768071e-18
x[212] 1.0000000000000004e+00
x[213] 1
x[214] 0
x[215] 0
x[216] 1
x[217] 1
x[218] 0
x[219] 0
x[220] 0
x[221] 1
x[222] 1
x[223] 1
x[224] 1
x[225] 4.6132154268621130e-15
x[226] 1
x[227] 9.9999999999999978e-01
x[228] -2.7755575615628914e-17
x[229] 1
x[230] 0
x[231] 0
x[232] 0
x[233] 1
x[234] 1
x[235] 1
x[236] 1
x[237] 9.9999999999999978e-01
x[238] 9.9999999999999978e-01
x[239] 0
x[240] 4.6132154268621130e-15
x[241] 0
x[242] 0
x[243] 1
x[244] 6.9388939039072284e-17
x[245] 0
x[246] 0
x[247] 1
x[248] 0
x[249] 9.9999999999999811e-01
x[250] 0
x[251] -2.7755575615628914e-17
x[252] 0
x[253] 9.9999999999999978e-01
x[254] 1
x[255] 0
x[256] 1
x[257] -1.7347234759768071e-18
x[258] 1
x[259] 0
x[260] 0
x[261] 0
x[262] 0
x[263] 1
x[264] 0
x[265] 1
x[266] -1.7347234759768071e-18
x[267] 1
x[268] 9.9999999999999978e-01
x[269] 0
x[270] 4.6132154268621130e-15
x[271] 0
x[272] 1
x[273] 0
x[274] 0
x[275] 0
x[276] 1
x[277] 1
x[278] 9.9999999999999978e-01
x[279] 0
x[280] 1
x[281] 1
x[282] 0
x[283] -4.3715031594615539e-16
x[284] 1
x[285] 1
x[286] 1
x[287] 0
x[288] 0
x[289] 0
x[290] 0
x[291] 1
x[292] 1
x[293] 1
x[294] 0
x[295] 1
x[296] 9.9999999999999778e-01
x[297] 1
x[298] 1
x[299] 0
x[300] 9.9999999999999978e-01
x[301] 9.9999999999999756e-01
x[302] 1
x[303] 1
x[304] 1
x[305] 1
x[306] 9.9999999999999978e-01
x[307] 1
x[308] 1
x[309] 9.9999999999999978e-01
x[310] 1
x[311] 1
x[312] 0
x[313] 1.0000000000000004e+00
x[314] 0
x[315] 0
x[316] 1
x[317] 1
x[318] 1
x[319] 0
x[320] 0
x[321] 1
x[322] -2.7755575615628914e-17
x[323] 0
x[324] 0
x[325] 1
x[326] 0
x[327] 9.9999999999999978e-01
x[328] 9.9999999999999978e-01
x[329] 0
x[330] 1
x[331] 1
x[332] 1
x[333] 0
x[334] 1
x[335] 9.9999999999999978e-01
x[336] 0
x[337] 0
x[338] 0
x[339] 1
x[340] 0
x[341] 9.9999999999999978e-01
x[342] 1
x[343] 1
x[344] 0
x[345] 0
x[346] 1
x[347] 1
x[348] 1
x[349] 0
x[350] 0
x[351] 0
x[352] 0
x[353] 9.9999999999999778e-01
x[354] 0
x[355] 9.9999999999999978e-01
x[356] 0
x[357] 0
x[358] 0
x[359] 1
x[360] 0
x[361] 0
x[362] 0
x[363] 1
x[364] 0
x[365] 0
x[366] 1
x[367] 1
x[368] 1
x[369] 0
x[370] 9.9999999999999978e-01
x[371] 0
x[372] 0
x[373] 1
x[374] 0
x[375] 1
x[376] 9.9999999999999933e-01
x[377] 9.9999999999999978e-01
x[378] 9.9999999999999978e-01
x[379] -1.7347234759768071e-18
x[380] 1
x[381] 1
x[382] 0
x[383] 0
x[384] 1
x[385] -2.7755575615628914e-17
x[386] 1
x[387] 9.9999999999999978e-01
x[388] -2.7755575615628914e-17
x[389] 0
x[390] 9.9999999999999978e-01
x[391] 1
x[392] 0
x[393] 1
x[394] 1
x[395] 1
x[396] 0
x[397] 0
x[398] 9.9999999999999978e-01
x[399] 0
x[400] 1
x[401] 0
x[402] 0
x[403] 9.9999999999999978e-01
x[404] 0
x[405] 1
x[406] 0
x[407] 9.9999999999999978e-01
x[408] 9.9999999999999833e-01
x[409] 1
x[410] 1
x[411] 1
x[412] 9.9999999999999833e-01
x[413] 0
x[414] 0
x[415] 1
x[416] 1
x[417] 9.9999999999999778e-01
x[418] 1
x[419] 0
x[420] 0
x[421] 0
x[422] 9.9999999999999978e-01
x[423] 0
x[424] 0
x[425] 0
x[426] 1
x[427] 0
x[428] 1
x[429] 9.9999999999999778e-01
x[430] 0
x[431] 9.9999999999999978e-01
x[432] 9.9999999999999978e-01
x[433] 1
x[434] -2.7755575615628914e-17
x[435] 0
x[436] 1
x[437] 0
x[438] 9.9999999999999978e-01
x[439] 0
x[440] 9.9999999999999978e-01
x[441] 1
x[442] 1
x[443] 0
x[444] 9.9999999999999978e-01
x[445] 0
x[446] 0
x[447] 9.9999999999999978e-01
x[448] 9.9999999999999978e-01
x[449] 1
x[450] 9.9999999999999811e-01
x[451] 1
x[452] 0
x[453] 9.9999999999999978e-01
x[454] 9.9999999999999978e-01
x[455] 1
x[456] 0
x[457] -2.7755575615628914e-17
x[458] 1
x[459] 9.9999999999999989e-01
x[460] 0
x[461] 9.9999999999999778e-01
x[462] 1
x[463] 1
x[464] 0
x[465] 1
x[466] 1
x[467] 9.9999999999999978e-01
x[468] 1
x[469] 0
x[470] 1
x[471] 0
x[472] 0
x[473] 0
x[474] 0
x[475] 0
x[476] 1
x[477] 1
x[478] 0
x[479] 0
x[480] 1
x[481] 1
x[482] 9.9999999999999978e-01
x[483] 1.0000000000000004e+00
x[484] 1
x[485] -2.7755575615628914e-17
x[486] 9.9999999999999978e-01
x[487] 9.9999999999999778e-01
x[488] 1.0000000000000004e+00
x[489] 1
x[490] 1
x[491] 9.9999999999999978e-01
x[492] 1
x[493] 1
x[494] 9.9999999999999978e-01
x[495] 1
x[496] 9.9999999999999978e-01
x[497] 1
x[498] 9.9999999999999978e-01
x[499] 9.9999999999999978e-01
x[500] -2.7755575615628914e-17
x[501] 0
x[502] 1
x[503] 1
x[504] 0
x[505] 1
x[506] 9.9999999999999933e-01
x[507] 9.9999999999999978e-01
x[508] 0
x[509] 1
x[510] 1
x[511] 1
x[512] 0
x[513] 1
x[514] 0
x[515] 0
x[516] 0
x[517] 0
x[518] -2.7755575615628914e-17
x[519] 1
x[520] 1
x[521] 0
x[522] 1
x[523] 1.0000000000000011e+00
x[524] 0
x[525] 9.9999999999999811e-01
x[526] 1
x[527] 0
x[528] 1
x[529] 1
x[530] 0
x[531] 0
x[532] 0
x[533] 1
x[534] 1
x[535] 1
x[536] 0
x[537] 0
x[538] 9.9999999999999778e-01
x[539] 0
x[540] 0
x[541] 0
x[542] 1
x[543] 1
x[544] 9.9999999999999811e-01
x[545] 9.9999999999999978e-01
x[546] 1
x[547] 0
x[548] 0
x[549] 1
x[550] 1
x[551] 1
x[552] 9.9999999999999978e-01
x[553] 9.9999999999999978e-01
x[554] 0
x[555] 0
x[556] 9.9999999999999978e-01
x[557] 1
x[558] 1
x[559] 9.9999999999999778e-01
x[560] 0
x[561] 9.9999999999999978e-01
x[562] 1
x[563] 0
x[564] 1
x[565] -2.7755575615628914e-17
x[566] 0
x[567] 1
x[568] 1
x[569] -2.7755575615628914e-17
x[570] 9.9999999999999978e-01
x[571] 0
x[572] 1
x[573] 9.9999999999999989e-01
x[574] 0
x[575] 1.0000000000000004e+00
x[576] 1
x[577] 1
x[578] -2.7755575615628914e-17
x[579] 0
x[580] 9.9999999999999978e-01
x[581] 9.9999999999999978e-01
x[582] 1
x[583] 0
x[584] 1
x[585] 9.9999999999999978e-01
x[586] 0
x[587] 1.0000000000000002e+00
x[588] 0
x[589] -2.7755575615628914e-17
x[590] 0
x[591] 0
x[592] 9.9999999999999978e-01
x[593] 0
x[594] 0
x[595] 9.9999999999999978e-01
x[596] 1.0000000000000004e+00
x[597] 1
x[598] 1
x[599] 0
x[600] 0
x[601] 0
x[602] 9.9999999999999833e-01
x[603] 1
x[604] 9.9999999999999978e-01
x[605] 0
x[606] 1
x[607] 1
x[608] 9.9999999999999778e-01
x[609] 1
x[610] 1
x[611] 1
x[612] 0
x[613] 1
x[614] 1
x[615] 1
x[616] 0
x[617] 0
x[618] 9.9999999999999778e-01
x[619] 9.9999999999999778e-01
x[620] 0
x[621] 0
x[622] 9.9999999999999978e-01
x[623] 1.0000000000000004e+00
x[624] 1
x[625] -2.7755575615628914e-17
x[626] 0
x[627] 9.9999999999999978e-01
x[628] 9.9999999999999978e-01
x[629] 0
x[630] 0
x[631] 1
x[632] 0
x[633] 1
x[634] 0
x[635] 0
x[636] 9.9999999999999778e-01
x[637] -1.7347234759768071e-18
x[638] 9.9999999999999756e-01
x[639] 0
x[640] 1
x[641] 0
x[642] 0
x[643] 9.9999999999999989e-01
x[644] 9.9999999999999989e-01
x[645] 0
x[646] 0
x[647] 1
x[648] 9.9999999999999978e-01
x[649] 9.9999999999999978e-01
x[650] 9.9999999999999989e-01
x[651] 1
x[652] 0
x[653] -2.7755575615628914e-17
x[654] 1
x[655] 0
x[656] 9.9999999999999833e-01
x[657] 0
x[658] 0
x[659] 0
x[660] 0
x[661] 1
x[662] 9.9999999999999778e-01
x[663] 9.9999999999999978e-01
x[664] 0
x[665] 1
x[666] 9.9999999999999978e-01
x[667] 9.9999999999999778e-01
x[668] 0
x[669] 1
x[670] 1
x[671] 9.9999999999999778e-01
x[672] 0
x[673] 1
x[674] 1.0000000000000004e+00
x[675] 1
x[676] 9.9999999999999978e-01
x[677] 0
x[678] 9.9999999999999978e-01
x[679] 9.9999999999999989e-01
x[680] 1
x[681] 1
x[682] 1
x[683] 0
x[684] 0
x[685] 0
x[686] 1
x[687] 0
x[688] 9.9999999999999978e-01
x[689] 9.9999999999999778e-01
x[690] 9.9999999999999933e-01
x[691] 1
x[692] 1
x[693] 0
x[694] 9.9999999999999833e-01
x[695] 9.9999999999999978e-01
x[696] 0
x[697] 0
x[698] 1
x[699] 1
x[700] 9.9999999999999978e-01
x[701] 0
x[702] 1
x[703] 1
x[704] 0
x[705] 0
x[706] 9.9999999999999978e-01
x[707] -2.7755575615628914e-17
x[708] 9.9999999999999978e-01
x[709] 0
x[710] 1
x[711] 1.0000000000000011e+00
x[712] 0
x[713] 0
x[714] 0
x[715] 1
x[716] -2.7755575615628914e-17
x[717] 9.9999999999999978e-01
x[718] 9.9999999999999833e-01
x[719] 0
x[720] 1
x[721] 1
x[722] 1
x[723] 1
x[724] 0
x[725] 1
x[726] 9.9999999999999978e-01
x[727] 1
x[728] 0
x[729] 0
x[730] 0
x[731] 1
x[732] 0
x[733] 0
x[734] 0
x[735] 1
x[736] 1.0000000000000002e+00
x[737] 1
x[738] 0
x[739] 1
x[740] 0
x[741] 1.0000000000000004e+00
x[742] 0
x[743] 0
x[744] 1
x[745] 0
x[746] 9.9999999999999978e-01
x[747] 0
x[748] -2.7755575615628914e-17
x[749] 9.9999999999999778e-01
x[750] 0
x[751] 0
x[752] 0
x[753] -2.7755575615628914e-17
x[754] 1
x[755] 9.9999999999999778e-01
x[756] 0
x[757] 0
x[758] 0
x[759] 9.9999999999999978e-01
x[760] 9.9999999999999989e-01
x[761] 1
x[762] 0
x[763] 0
x[764] 9.9999999999999978e-01
x[765] 0
x[766] 9.9999999999999978e-01
x[767] 1
x[768] 9.9999999999999978e-01
x[769] 0
x[770] 1
x[771] 0
x[772] 0
x[773] 0
x[774] 0
x[775] 0
x[776] 0
x[777] 0
x[778] 1
x[779] 0
x[780] 0
x[781] 9.9999999999999978e-01
x[782] 1
x[783] 0
x[784] 9.9999999999999778e-01
x[785] 0
x[786] 1
x[787] 1
x[788] 9.9999999999999833e-01
x[789] 1
x[790] 9.9999999999999978e-01
x[791] 9.9999999999999978e-01
x[792] 0
x[793] 0
x[794] 9.9999999999999778e-01
x[795] 9.9999999999999778e-01
x[796] 1
x[797] 0
x[798] 1
x[799] 0
x[800] 1
x[801] 1
x[802] 9.9999999999999778e-01
x[803] 9.9999999999999778e-01
x[804] 1
x[805] 1
x[806] 1
x[807] 0
x[808] 1
x[809] 9.9999999999999978e-01
x[810] 1
x[811] 1
x[812] 1.0000000000000004e+00
x[813] 0
x[814] 0
x[815] 1
x[816] 0
x[817] 1.0000000000000004e+00
x[818] 9.9999999999999778e-01
x[819] 9.9999999999999978e-01
x[820] 9.9999999999999978e-01
x[821] 1
x[822] 1
x[823] 0
x[824] 0
x[825] 0
x[826] 1
x[827] 0
x[828] 1
x[829] 0
x[830] 9.9999999999999778e-01
x[831] 0
x[832] 0
x[833] 9.9999999999999978e-01
x[834] 9.9999999999999811e-01
x[835] 0
x[836] 1
x[837] 9.9999999999999778e-01
x[838] 1
x[839] 0
x[840] 9.9999999999999978e-01
x[841] 0
x[842] 1.0000000000000004e+00
x[843] 0
x[844] 9.9999999999999978e-01
x[845] 1
x[846] -2.7755575615628914e-17
x[847] -2.7755575615628914e-17
x[848] 9.9999999999999978e-01
x[849] 9.9999999999999978e-01
x[850] 0
x[851] 9.9999999999999978e-01
x[852] 0
x[853] 9.9999999999999811e-01
x[854] 1
x[855] 9.9999999999999978e-01
x[856] 0
x[857] -1.7347234759768071e-18
x[858] 0
x[859] 0
x[860] -2.7755575615628914e-17
x[861] 1
x[862] 0
x[863] 9.9999999999999978e-01
x[864] 0
x[865] 0
x[866] 1
x[867] 0
x[868] 1
x[869] 0
x[870] 0
x[871] 0
x[872] 1
x[873] 9.9999999999999978e-01
x[874] 9.9999999999999811e-01
x[875] 0
x[876] 0
x[877] 0
x[878] 9.9999999999999978e-01
x[879] 1
x[880] 1
x[881] 1
x[882] 1
x[883] 0
x[884] 9.9999999999999778e-01
x[885] 0
x[886] 0
x[887] -2.7755575615628914e-17
x[888] 1
x[889] 0
x[890] 9.9999999999999933e-01
x[891] 0
x[892] 0
x[893] 1
x[894] 1
x[895] 0
x[896] 9.9999999999999978e-01
x[897] 0
x[898] 9.9999999999999978e-01
x[899] 9.9999999999999978e-01
x[900] 0
x[901] 0
x[902] 9.9999999999999978e-01
x[903] 1
x[904] 0
x[905] 0
x[906] 0
x[907] 1
x[908] 1
x[909] 9.9999999999999778e-01
x[910] 9.9999999999999989e-01
x[911] 0
x[912] 1
x[913] 1
x[914] 1
x[915] 9.9999999999999978e-01
x[916] 1
x[917] 1
x[918] 0
x[919] 0
x[920] 0
x[921] 1
x[922] 9.9999999999999978e-01
x[923] 0
x[924] 9.9999999999999933e-01
x[925] 0
x[926] 0
x[927] 0
x[928] 1
x[929] 1
x[930] 0
x[931] 0
x[932] 0
x[933] 1
x[934] 1
x[935] 1
x[936] 0
x[937] -1.7347234759768071e-18
x[938] -2.7755575615628914e-17
x[939] 9.9999999999999978e-01
x[940] 9.9999999999999811e-01
x[941] 1
x[942] 0
x[943] 1
x[944] 1
x[945] 0
x[946] 0
x[947] 0
x[948] 0
x[949] 1
x[950] 1
x[951] 0
x[952] 1
x[953] 1
x[954] 0
x[955] 9.9999999999999978e-01
x[956] 0
x[957] 0
x[958] 1
x[959] 0
x[960] 9.9999999999999978e-01
x[961] 1
x[962] 9.9999999999999978e-01
x[963] 0
x[964] 9.9999999999999778e-01
x[965] 0
x[966] 1
x[967] 9.9999999999999978e-01
x[968] 1
x[969] 9.9999999999999978e-01
x[970] 1
x[971] -2.7755575615628914e-17
x[972] -1.7347234759768071e-18
x[973] 0
x[974] 0
x[975] 9.9999999999999933e-01
x[976] 1
x[977] 0
x[978] 0
x[979] 9.9999999999999978e-01
x[980] 0
x[981] 9.9999999999999978e-01
x[982] 0
x[983] 0
x[984] 9.9999999999999811e-01
x[985] 0
x[986] 9.9999999999999778e-01
x[987] 1
x[988] 1
x[989] 9.9999999999999978e-01
x[990] 0
x[991] 0
x[992] 9.9999999999999933e-01
x[993] 1
x[994] 9.9999999999999811e-01
x[995] 0
x[996] 1
x[997] 0
x[998] 0
x[999] 9.9999999999999978e-01
